176
0 154 7 128 140 34 6 117 151 17 
10 86 167 168 125 64 80 22 42 153 
35 49 24 54 138 109 139 59 45 111 
36 143 164 115 145 96 130 110 52 46 
76 74 101 78 106 58 62 94 129 105 
8 55 104 158 31 82 91 114 73 135 
66 37 98 155 133 165 148 57 70 15 
30 116 68 170 173 123 81 175 47 63 
9 2 108 27 118 146 124 161 87 83 
71 156 134 172 157 19 102 75 95 126 
16 43 171 90 39 149 61 23 3 26 
20 152 162 40 56 50 85 1 12 159 
18 53 33 38 137 79 44 5 41 163 
97 113 67 103 14 51 29 92 169 127 
107 121 93 13 69 131 11 77 141 21 
65 132 28 112 89 88 174 160 100 120 
144 147 32 60 166 142 72 136 122 99 
48 119 25 84 150 4 
